(declare-fun v5 () (_ BitVec 16))
(declare-fun v9 () (_ BitVec 9))
(declare-fun v11 () (_ BitVec 1))
(assert
(let (($e22 (_ bv0 7)))
(let (($e23 (_ bv127 7)))
(let (($e181 (concat $e23  v9)))
(let (($e182 (concat $e22 v9)))
(let (($e183 (bvand v5 $e182)))
(let (($e184 (bvand $e183 $e181)))
             (ite        v11    $e183 $e184)
                                                                                                                                                                                                                                                                                                                                                                                                                                                                                                                                                                                                                                                                                                                                                                                                                                                                                                                                                                                                                                                                                                                                                                                                                                                                                                                                                                                                                                                                                                                                                                                                                                                                                                                                                                                                                                                                                                                                                                                                                                                                                                                                                                                                                                                                                                                                                                                                                                                                                                                                                                                                                                                                                                                ))))                                                                                                                                             ))                     )
